data/exact/exact_013.gr
p tdp 25 46
1 2
1 3
1 6
2 3
2 4
2 5
3 7
3 8
4 6
4 5
5 6
6 8
7 9
7 10
7 8
7 11
8 11
9 10
9 11
10 12
10 11
10 13
12 14
12 15
12 13
13 14
14 15
14 16
15 16
15 17
15 18
16 17
16 18
17 19
17 18
18 19
19 20
20 21
20 22
21 23
21 24
21 22
21 25
22 25
23 24
23 25
