solutions/best/exact/exact_013.sol
7
3
11
6
6
4
2
10
3
11
0
7
13
16
12
20
15
19
16
18
10
25
21
24
21
20
